30 
300 
-0.5 0 0 0
0.5 0 0 -110
-7 -7 -35 -111
-7 -5 35 -20
-7 -3 -35 -88
-7 -1 -35 -103
-7 1 -35 -99
-7 3 -35 -133
-7 5 35 -25
-7 7 35 -22
-5 -7 35 -24
-5 -5 -25 -101
-5 -3 -25 -96
-5 -1 -25 -82
-5 1 -25 -131
-5 3 -25 -117
-5 5 25 -23
-5 7 -35 -135
-3 -7 -35 -82
-3 -5 -25 -86
-3 -3 15 -27
-3 -1 -15 -113
-3 1 -15 -135
-3 3 -15 -65
-3 5 -25 -108
-3 7 35 -26
-1 -7 35 -24
-1 -5 25 -11
-1 -3 -15 -122
-1 -1 -5 -109
-1 1 5 -28
-1 3 15 -26
-1 5 -25 -66
-1 7 -35 -101
1 -7 35 -19
1 -5 -25 -123
1 -3 15 -15
1 -1 5 -15
1 1 -5 -115
1 3 15 -26
1 5 25 -20
1 7 35 -14
3 -7 35 -10
3 -5 25 -17
3 -3 -15 -115
3 -1 -15 -78
3 1 -15 -67
3 3 -15 -85
3 5 -25 -102
3 7 -35 -136
5 -7 35 -20
5 -5 -25 -106
5 -3 25 -14
5 -1 25 -10
5 1 -25 -60
5 3 25 -22
5 5 25 -29
5 7 -35 -67
7 -7 -35 -70
7 -5 35 -23
7 -3 35 -10
7 -1 35 -12
7 1 -35 -78
7 3 35 -15
7 5 -35 -135
7 7 35 -10
